100 154610
6 90 1 13 87 8 66 51 72 18 91 11 43 55 40 73 64 20 17 92 77 63 34 81 59 46 26 69 7 53 28 95 31 14 84 67 30 2 41 49 33 74 22 4 19 98 47 100 38 70 15 25 75 89 68 56 85 96 36 48 71 32 54 60 86 94 61 99 82 93 37 78 27 57 9 16 52 44 12 76 88 83 5 79 62 97 21 23 50 45 58 65 80 39 10 24 42 29 35 3 
